NAME : traveling-santa-2018-prime-paths.28548.tour
COMMENT : Length = 28548
COMMENT : Found by LKH [Keld Helsgaun] Sun Jun 12 20:00:13 2022
TYPE : TOUR
DIMENSION : 100
TOUR_SECTION
1
3
71
33
80
28
75
84
32
60
58
42
98
18
74
81
97
85
30
46
15
94
53
35
25
16
51
86
63
55
48
92
96
79
43
93
62
13
54
67
39
47
66
31
95
44
88
7
5
49
70
77
64
78
12
2
10
26
68
90
22
76
59
52
24
87
91
4
99
61
14
27
34
82
23
73
6
9
20
72
56
50
65
38
83
8
40
17
21
11
36
57
29
89
100
45
41
69
37
19
-1
EOF
